instances/shortest_path/discrete/shortest_path_4_4.lp
\ Model nohadani_4_4
\ LP format - for model browsing. Use MPS format to capture full model detail.
\ Signature: 0x26b3cf7f3313a25f
Minimize
  45.45327270945405 y[0,1] + 44.55333881989093 y[0,2]
   + 46.06517122512408 y[0,3] + 45.45327270945405 y[1,0] + 5 y[1,2]
   + 50.35871324805669 y[1,3] + 44.55333881989093 y[2,0] + 5 y[2,1]
   + 46.06517122512408 y[3,0] + 50.35871324805669 y[3,1] + x[0,1] + x[0,2]
   + x[0,3] + x[1,0] + x[1,2] + x[1,3] + x[2,0] + x[2,1] + x[3,0] + x[3,1]
   + 4.545327270945405 r[0,1] + 4.455333881989093 r[0,2]
   + 4.606517122512408 r[0,3] + 4.545327270945405 r[1,0] + 0.5 r[1,2]
   + 5.035871324805669 r[1,3] + 4.455333881989093 r[2,0] + 0.5 r[2,1]
   + 4.606517122512408 r[3,0] + 5.035871324805669 r[3,1]
Subject To
 flow_cons_inner_nodes[0]: - y[0,1] - y[0,2] - y[0,3] + y[1,0] + y[2,0]
   + y[3,0] = 0
 flow_cons_inner_nodes[1]: y[0,1] - y[1,0] - y[1,2] - y[1,3] + y[2,1]
   + y[3,1] = 0
 flow_cons_source: - y[0,2] - y[1,2] + y[2,0] + y[2,1] = 1
 flow_cons_target: y[0,3] + y[1,3] - y[3,0] - y[3,1] = 1
 primal_lower: 7.855791258939874 x[0,1] + 3.217294808950792 x[0,2]
   + 0.6181701716007442 x[0,3] + 8.30128371319206 x[1,0]
   + 5.583668639462805 x[1,2] + 9.370551357818657 x[1,3]
   + 1.953267795467231 x[2,0] + 3.394694808392172 x[2,1]
   + 7.949650666816352 x[3,0] + 3.325114151072627 x[3,1] + 28 u[0,1]
   + 92 u[0,2] + 82 u[0,3] + 3 u[1,0] + 32 u[1,2] + 62 u[1,3] + 89 u[2,0]
   + 76 u[2,1] + 97 u[3,0] + 82 u[3,1] <= 97
 mccormick1[0,1]: - u[0,1] + r[0,1] <= 0
 mccormick1[0,2]: - u[0,2] + r[0,2] <= 0
 mccormick1[0,3]: - u[0,3] + r[0,3] <= 0
 mccormick1[1,0]: - u[1,0] + r[1,0] <= 0
 mccormick1[1,2]: - u[1,2] + r[1,2] <= 0
 mccormick1[1,3]: - u[1,3] + r[1,3] <= 0
 mccormick1[2,0]: - u[2,0] + r[2,0] <= 0
 mccormick1[2,1]: - u[2,1] + r[2,1] <= 0
 mccormick1[3,0]: - u[3,0] + r[3,0] <= 0
 mccormick1[3,1]: - u[3,1] + r[3,1] <= 0
 mccormick2[0,1]: - y[0,1] + r[0,1] <= 0
 mccormick2[0,2]: - y[0,2] + r[0,2] <= 0
 mccormick2[0,3]: - y[0,3] + r[0,3] <= 0
 mccormick2[1,0]: - y[1,0] + r[1,0] <= 0
 mccormick2[1,2]: - y[1,2] + r[1,2] <= 0
 mccormick2[1,3]: - y[1,3] + r[1,3] <= 0
 mccormick2[2,0]: - y[2,0] + r[2,0] <= 0
 mccormick2[2,1]: - y[2,1] + r[2,1] <= 0
 mccormick2[3,0]: - y[3,0] + r[3,0] <= 0
 mccormick2[3,1]: - y[3,1] + r[3,1] <= 0
 mccormick3[0,1]: - y[0,1] - u[0,1] + r[0,1] >= -1
 mccormick3[0,2]: - y[0,2] - u[0,2] + r[0,2] >= -1
 mccormick3[0,3]: - y[0,3] - u[0,3] + r[0,3] >= -1
 mccormick3[1,0]: - y[1,0] - u[1,0] + r[1,0] >= -1
 mccormick3[1,2]: - y[1,2] - u[1,2] + r[1,2] >= -1
 mccormick3[1,3]: - y[1,3] - u[1,3] + r[1,3] >= -1
 mccormick3[2,0]: - y[2,0] - u[2,0] + r[2,0] >= -1
 mccormick3[2,1]: - y[2,1] - u[2,1] + r[2,1] >= -1
 mccormick3[3,0]: - y[3,0] - u[3,0] + r[3,0] >= -1
 mccormick3[3,1]: - y[3,1] - u[3,1] + r[3,1] >= -1
Bounds
Binaries
 y[0,1] y[0,2] y[0,3] y[1,0] y[1,2] y[1,3] y[2,0] y[2,1] y[3,0] y[3,1]
 x[0,1] x[0,2] x[0,3] x[1,0] x[1,2] x[1,3] x[2,0] x[2,1] x[3,0] x[3,1]
 u[0,1] u[0,2] u[0,3] u[1,0] u[1,2] u[1,3] u[2,0] u[2,1] u[3,0] u[3,1]
 r[0,1] r[0,2] r[0,3] r[1,0] r[1,2] r[1,3] r[2,0] r[2,1] r[3,0] r[3,1]
End
