instances/shortest_path/discrete/shortest_path_4_4.mps
* Signature: 0x26b3cf7f3313a25f
NAME nohadani_4_4
ROWS
 N  OBJ
 E  flow_cons_inner_nodes[0]
 E  flow_cons_inner_nodes[1]
 E  flow_cons_source
 E  flow_cons_target
 L  primal_lower
 L  mccormick1[0,1]
 L  mccormick1[0,2]
 L  mccormick1[0,3]
 L  mccormick1[1,0]
 L  mccormick1[1,2]
 L  mccormick1[1,3]
 L  mccormick1[2,0]
 L  mccormick1[2,1]
 L  mccormick1[3,0]
 L  mccormick1[3,1]
 L  mccormick2[0,1]
 L  mccormick2[0,2]
 L  mccormick2[0,3]
 L  mccormick2[1,0]
 L  mccormick2[1,2]
 L  mccormick2[1,3]
 L  mccormick2[2,0]
 L  mccormick2[2,1]
 L  mccormick2[3,0]
 L  mccormick2[3,1]
 G  mccormick3[0,1]
 G  mccormick3[0,2]
 G  mccormick3[0,3]
 G  mccormick3[1,0]
 G  mccormick3[1,2]
 G  mccormick3[1,3]
 G  mccormick3[2,0]
 G  mccormick3[2,1]
 G  mccormick3[3,0]
 G  mccormick3[3,1]
COLUMNS
    MARKER    'MARKER'                 'INTORG'
    y[0,1]    OBJ       4.5453272709454048e+01
    y[0,1]    flow_cons_inner_nodes[0]  -1
    y[0,1]    flow_cons_inner_nodes[1]  1
    y[0,1]    mccormick2[0,1]  -1
    y[0,1]    mccormick3[0,1]  -1
    y[0,2]    OBJ       4.4553338819890925e+01
    y[0,2]    flow_cons_inner_nodes[0]  -1
    y[0,2]    flow_cons_source  -1
    y[0,2]    mccormick2[0,2]  -1
    y[0,2]    mccormick3[0,2]  -1
    y[0,3]    OBJ       4.6065171225124082e+01
    y[0,3]    flow_cons_inner_nodes[0]  -1
    y[0,3]    flow_cons_target  1
    y[0,3]    mccormick2[0,3]  -1
    y[0,3]    mccormick3[0,3]  -1
    y[1,0]    OBJ       4.5453272709454048e+01
    y[1,0]    flow_cons_inner_nodes[0]  1
    y[1,0]    flow_cons_inner_nodes[1]  -1
    y[1,0]    mccormick2[1,0]  -1
    y[1,0]    mccormick3[1,0]  -1
    y[1,2]    OBJ       5
    y[1,2]    flow_cons_inner_nodes[1]  -1
    y[1,2]    flow_cons_source  -1
    y[1,2]    mccormick2[1,2]  -1
    y[1,2]    mccormick3[1,2]  -1
    y[1,3]    OBJ       5.0358713248056688e+01
    y[1,3]    flow_cons_inner_nodes[1]  -1
    y[1,3]    flow_cons_target  1
    y[1,3]    mccormick2[1,3]  -1
    y[1,3]    mccormick3[1,3]  -1
    y[2,0]    OBJ       4.4553338819890925e+01
    y[2,0]    flow_cons_inner_nodes[0]  1
    y[2,0]    flow_cons_source  1
    y[2,0]    mccormick2[2,0]  -1
    y[2,0]    mccormick3[2,0]  -1
    y[2,1]    OBJ       5
    y[2,1]    flow_cons_inner_nodes[1]  1
    y[2,1]    flow_cons_source  1
    y[2,1]    mccormick2[2,1]  -1
    y[2,1]    mccormick3[2,1]  -1
    y[3,0]    OBJ       4.6065171225124082e+01
    y[3,0]    flow_cons_inner_nodes[0]  1
    y[3,0]    flow_cons_target  -1
    y[3,0]    mccormick2[3,0]  -1
    y[3,0]    mccormick3[3,0]  -1
    y[3,1]    OBJ       5.0358713248056688e+01
    y[3,1]    flow_cons_inner_nodes[1]  1
    y[3,1]    flow_cons_target  -1
    y[3,1]    mccormick2[3,1]  -1
    y[3,1]    mccormick3[3,1]  -1
    x[0,1]    OBJ       1
    x[0,1]    primal_lower  7.8557912589398740e+00
    x[0,2]    OBJ       1
    x[0,2]    primal_lower  3.2172948089507920e+00
    x[0,3]    OBJ       1
    x[0,3]    primal_lower  6.1817017160074417e-01
    x[1,0]    OBJ       1
    x[1,0]    primal_lower  8.30128371319206
    x[1,2]    OBJ       1
    x[1,2]    primal_lower  5.5836686394628048e+00
    x[1,3]    OBJ       1
    x[1,3]    primal_lower  9.3705513578186572e+00
    x[2,0]    OBJ       1
    x[2,0]    primal_lower  1.9532677954672308e+00
    x[2,1]    OBJ       1
    x[2,1]    primal_lower  3.3946948083921722e+00
    x[3,0]    OBJ       1
    x[3,0]    primal_lower  7.9496506668163525e+00
    x[3,1]    OBJ       1
    x[3,1]    primal_lower  3.3251141510726270e+00
    u[0,1]    primal_lower  28
    u[0,1]    mccormick1[0,1]  -1
    u[0,1]    mccormick3[0,1]  -1
    u[0,2]    primal_lower  92
    u[0,2]    mccormick1[0,2]  -1
    u[0,2]    mccormick3[0,2]  -1
    u[0,3]    primal_lower  82
    u[0,3]    mccormick1[0,3]  -1
    u[0,3]    mccormick3[0,3]  -1
    u[1,0]    primal_lower  3
    u[1,0]    mccormick1[1,0]  -1
    u[1,0]    mccormick3[1,0]  -1
    u[1,2]    primal_lower  32
    u[1,2]    mccormick1[1,2]  -1
    u[1,2]    mccormick3[1,2]  -1
    u[1,3]    primal_lower  62
    u[1,3]    mccormick1[1,3]  -1
    u[1,3]    mccormick3[1,3]  -1
    u[2,0]    primal_lower  89
    u[2,0]    mccormick1[2,0]  -1
    u[2,0]    mccormick3[2,0]  -1
    u[2,1]    primal_lower  76
    u[2,1]    mccormick1[2,1]  -1
    u[2,1]    mccormick3[2,1]  -1
    u[3,0]    primal_lower  97
    u[3,0]    mccormick1[3,0]  -1
    u[3,0]    mccormick3[3,0]  -1
    u[3,1]    primal_lower  82
    u[3,1]    mccormick1[3,1]  -1
    u[3,1]    mccormick3[3,1]  -1
    r[0,1]    OBJ       4.5453272709454051e+00
    r[0,1]    mccormick1[0,1]  1
    r[0,1]    mccormick2[0,1]  1
    r[0,1]    mccormick3[0,1]  1
    r[0,2]    OBJ       4.4553338819890929e+00
    r[0,2]    mccormick1[0,2]  1
    r[0,2]    mccormick2[0,2]  1
    r[0,2]    mccormick3[0,2]  1
    r[0,3]    OBJ       4.6065171225124084e+00
    r[0,3]    mccormick1[0,3]  1
    r[0,3]    mccormick2[0,3]  1
    r[0,3]    mccormick3[0,3]  1
    r[1,0]    OBJ       4.5453272709454051e+00
    r[1,0]    mccormick1[1,0]  1
    r[1,0]    mccormick2[1,0]  1
    r[1,0]    mccormick3[1,0]  1
    r[1,2]    OBJ       0.5
    r[1,2]    mccormick1[1,2]  1
    r[1,2]    mccormick2[1,2]  1
    r[1,2]    mccormick3[1,2]  1
    r[1,3]    OBJ       5.0358713248056688e+00
    r[1,3]    mccormick1[1,3]  1
    r[1,3]    mccormick2[1,3]  1
    r[1,3]    mccormick3[1,3]  1
    r[2,0]    OBJ       4.4553338819890929e+00
    r[2,0]    mccormick1[2,0]  1
    r[2,0]    mccormick2[2,0]  1
    r[2,0]    mccormick3[2,0]  1
    r[2,1]    OBJ       0.5
    r[2,1]    mccormick1[2,1]  1
    r[2,1]    mccormick2[2,1]  1
    r[2,1]    mccormick3[2,1]  1
    r[3,0]    OBJ       4.6065171225124084e+00
    r[3,0]    mccormick1[3,0]  1
    r[3,0]    mccormick2[3,0]  1
    r[3,0]    mccormick3[3,0]  1
    r[3,1]    OBJ       5.0358713248056688e+00
    r[3,1]    mccormick1[3,1]  1
    r[3,1]    mccormick2[3,1]  1
    r[3,1]    mccormick3[3,1]  1
    MARKER    'MARKER'                 'INTEND'
RHS
    RHS1      flow_cons_source  1
    RHS1      flow_cons_target  1
    RHS1      primal_lower  97
    RHS1      mccormick3[0,1]  -1
    RHS1      mccormick3[0,2]  -1
    RHS1      mccormick3[0,3]  -1
    RHS1      mccormick3[1,0]  -1
    RHS1      mccormick3[1,2]  -1
    RHS1      mccormick3[1,3]  -1
    RHS1      mccormick3[2,0]  -1
    RHS1      mccormick3[2,1]  -1
    RHS1      mccormick3[3,0]  -1
    RHS1      mccormick3[3,1]  -1
BOUNDS
 BV BND1      y[0,1]  
 BV BND1      y[0,2]  
 BV BND1      y[0,3]  
 BV BND1      y[1,0]  
 BV BND1      y[1,2]  
 BV BND1      y[1,3]  
 BV BND1      y[2,0]  
 BV BND1      y[2,1]  
 BV BND1      y[3,0]  
 BV BND1      y[3,1]  
 BV BND1      x[0,1]  
 BV BND1      x[0,2]  
 BV BND1      x[0,3]  
 BV BND1      x[1,0]  
 BV BND1      x[1,2]  
 BV BND1      x[1,3]  
 BV BND1      x[2,0]  
 BV BND1      x[2,1]  
 BV BND1      x[3,0]  
 BV BND1      x[3,1]  
 BV BND1      u[0,1]  
 BV BND1      u[0,2]  
 BV BND1      u[0,3]  
 BV BND1      u[1,0]  
 BV BND1      u[1,2]  
 BV BND1      u[1,3]  
 BV BND1      u[2,0]  
 BV BND1      u[2,1]  
 BV BND1      u[3,0]  
 BV BND1      u[3,1]  
 BV BND1      r[0,1]  
 BV BND1      r[0,2]  
 BV BND1      r[0,3]  
 BV BND1      r[1,0]  
 BV BND1      r[1,2]  
 BV BND1      r[1,3]  
 BV BND1      r[2,0]  
 BV BND1      r[2,1]  
 BV BND1      r[3,0]  
 BV BND1      r[3,1]  
ENDATA
