instances/shortest_path/discrete/shortest_path_4_4.kp
50090
97

[7.855791258939874 3.217294808950792 0.6181701716007442 8.30128371319206 5.583668639462805 9.370551357818657 1.9532677954672308 3.394694808392172 7.9496506668163525 3.325114151072627]

[28 92 82 3 32 62 89 76 97 82]
